WARNING: for repeatability, setting FPU to use double precision
============================[ Problem Statistics ]=============================
|                                                                             |
|  Number of variables:         13266                                         |
|  Number of clauses:           26293                                         |
|  Parse time:                   0.01 s                                       |
branch_file: └¦K
|  Simplification time:          0.00 s                                       |
|                                                                             |
===============================================================================
Solved by simplification
restarts              : 0
conflicts             : 0              (0 /sec)
decisions             : 0              (-nan % random) (0 /sec)
propagations          : 3906           (434434 /sec)
conflict literals     : 0              (-nan % deleted)
Memory used           : 9.09 MB
CPU time              : 0.008991 s

UNSATISFIABLE
